set G := G1 G2;
set D := D1 D2 D3 D4;
set N := 0 1 2 3 4 5;
set L := L00 L01 L02 L03 L04 L05 L10 L11 L12 L13 L14 L15 L20 L21 L22 L23 L24 L25 L30 L31 L32 L33 L34 L35 L40 L41 L42 L43
 L44 L45 L50 L51 L52 L53 L54 L55;
set T := 0 1 2 3 4 5 6 7 8 9 10 11 12 13 14 15 16 17 18 19 20 21 22 23;

param Pgmax :
    0     1     2   3   4   5   6   7   8   9   10  11  12  13  14  15  16  17  18  19  20  21  22  23 :=
G1  100   112  70   45  60  99  102 97  88  76  54  66  103 105 120 76  80  97  78  87  125 115 110 100
G2  84    67   77   90  35  56  89  76  78  56  89  98  67  85  87  45  54  32  65  55  65  34  45  53;

param Pdmax :
    0      1     2     3     4   5      6     7    8   9    10  11   12   13   14    15   16   17   18   19  20   21  22   23 :=
D1  14     13    8.4   6.4   14  14.6   16    16.8 18  20.6 22  28   29   30   29.2  29.8 26.8 28.6 22.6 24  25.2 24  19.4 16
D2  28     26    16.8  12.8  28  29.2   32    33.6 36  41.2 44  56   58   60   58.4  59.6 53.6 57.2 45.2 28  50.4 48  38.8 32
D3  10.85  10    6.51  4.96  11  11.32  12.4  13.2 14  16   17  22   22   23.2 22.63 23.2 20.8 22.2 17.5 19  19.5 19  15.1 12.4
D4  17.15  16    10.29 7.84  17  17.885 19.6  20.6 22  25.2 27  34.3 35.6 36.7 35.7  36.5 32.8 35.1 27.7 29  30.9 29  23.7 19.6;

param: costs_g :=
G1 26.11
G2 10.52;

param: costs_d :=
D1 40
D2 35
D3 31
D4 48;

param Fmaxnn:
    0     1     2    3    4    5:=
0   0     200   200  200  200  200
1   200   0     200  200  200  200
2   200   200   0    200  200  200
3   200   200   200  0    200  200
4   200   200   200  200  0    200
5   200   200   200  200  200  0;

param Bnn:
    0     1     2    3    4    5:=
0   0     500   500  500  500  500
1   500   0     500  500  500  500
2   500   500   0    500  500  500
3   500   500   500  0    500  500
4   500   500   500  500  0    500
5   500   500   500  500  500  0;

param location_generators:
    0     1     2   3   4   5:=
G1  1     0     0   0   0   0
G2  0     0     0   0   0   1;

param location_demands:
    0     1     2   3   4   5:=
D1  0     1     0   0   0   0
D2  0     0     1   0   0   0
D3  0     0     0   1   0   0
D4  0     0     0   0   1   0;